
Gurobi 11.0.1 (win64) logging started Sat Mar  9 21:20:26 2024

Set parameter LogFile to value "res/logfile/neos-4763324-togurulog.txt"

Gurobi 11.0.1 (win64) logging started Sat Mar  9 21:20:26 2024

Set parameter LogFile to value "res/logfile/neos-4763324-togurulog.txt"
Gurobi Optimizer version 11.0.1 build v11.0.1rc0 (win64 - Windows 11.0 (22621.2))

CPU model: AMD Ryzen Threadripper PRO 5975WX 32-Cores, instruction set [SSE2|AVX|AVX2]
Thread count: 32 physical cores, 64 logical processors, using up to 10 threads

Optimize a model with 106954 rows, 53593 columns and 319935 nonzeros
Model fingerprint: 0x9b2157c2
Variable types: 1 continuous, 53592 integer (53592 binary)
Coefficient statistics:
  Matrix range     [1e+00, 5e+04]
  Objective range  [4e-02, 2e+03]
  Bounds range     [1e+00, 1e+00]
  RHS range        [1e+00, 1e+01]
Found heuristic solution: objective 11340.280013
Presolve removed 53130 rows and 0 columns
Presolve time: 0.88s
Presolved: 53824 rows, 53593 columns, 213675 nonzeros
Variable types: 1 continuous, 53592 integer (53592 binary)
Found heuristic solution: objective 6929.7111665
Deterministic concurrent LP optimizer: primal and dual simplex
Showing primal log only...

Concurrent spin time: 0.13s (can be avoided by choosing Method=3)

Solved with dual simplex

Root relaxation: objective 1.483727e+03, 5442 iterations, 0.65 seconds (0.87 work units)

    Nodes    |    Current Node    |     Objective Bounds      |     Work
 Expl Unexpl |  Obj  Depth IntInf | Incumbent    BestBd   Gap | It/Node Time

     0     0 1483.72667    0  539 6929.71117 1483.72667  78.6%     -    3s
H    0     0                    1657.0261564 1483.72667  10.5%     -    4s
     0     0 1493.80909    0  633 1657.02616 1493.80909  9.85%     -    7s
H    0     0                    1633.4558815 1494.03723  8.54%     -    8s
H    0     0                    1613.0388459 1494.03723  7.38%     -   12s
     0     0 1494.73432    0  682 1613.03885 1494.73432  7.33%     -   13s
     0     0 1496.72199    0  763 1613.03885 1496.72199  7.21%     -   15s
     0     0 1498.77290    0  730 1613.03885 1498.77290  7.08%     -   17s
     0     0 1498.83728    0  730 1613.03885 1498.83728  7.08%     -   17s
     0     0 1499.37551    0  751 1613.03885 1499.37551  7.05%     -   21s
     0     0 1499.79789    0  715 1613.03885 1499.79789  7.02%     -   22s
     0     0 1501.15119    0  826 1613.03885 1501.15119  6.94%     -   26s
     0     0 1501.32653    0  819 1613.03885 1501.32653  6.93%     -   28s
     0     0 1501.50757    0  874 1613.03885 1501.50757  6.91%     -   29s
     0     0 1502.48894    0  859 1613.03885 1502.48894  6.85%     -   30s
     0     0 1502.62638    0  859 1613.03885 1502.62638  6.84%     -   31s
     0     0 1503.98599    0  906 1613.03885 1503.98599  6.76%     -   32s
     0     0 1504.38203    0  963 1613.03885 1504.38203  6.74%     -   33s
     0     0 1504.41812    0  978 1613.03885 1504.41812  6.73%     -   34s
     0     0 1504.45444    0  965 1613.03885 1504.45444  6.73%     -   34s
     0     0 1504.48648    0  952 1613.03885 1504.48648  6.73%     -   34s
     0     0 1505.56966    0  896 1613.03885 1505.56966  6.66%     -   35s
     0     0 1505.83085    0  944 1613.03885 1505.83085  6.65%     -   36s
     0     0 1505.83944    0  940 1613.03885 1505.83944  6.65%     -   36s
     0     0 1505.85162    0  925 1613.03885 1505.85162  6.65%     -   37s
     0     0 1506.54885    0  920 1613.03885 1506.54885  6.60%     -   38s
     0     0 1506.65280    0  936 1613.03885 1506.65280  6.60%     -   39s
     0     0 1506.72852    0  868 1613.03885 1506.72852  6.59%     -   39s
     0     0 1506.79689    0  893 1613.03885 1506.79689  6.59%     -   39s
     0     0 1506.86242    0  924 1613.03885 1506.86242  6.58%     -   40s
     0     0 1507.68419    0  824 1613.03885 1507.68419  6.53%     -   41s
     0     0 1507.76855    0  847 1613.03885 1507.76855  6.53%     -   43s
     0     0 1507.76855    0  822 1613.03885 1507.76855  6.53%     -   43s
     0     0 1507.84949    0  835 1613.03885 1507.84949  6.52%     -   44s
     0     0 1507.94742    0  882 1613.03885 1507.94742  6.52%     -   45s
     0     0 1507.95093    0  855 1613.03885 1507.95093  6.51%     -   45s
     0     0 1507.97137    0  858 1613.03885 1507.97137  6.51%     -   45s
     0     0 1507.97164    0  859 1613.03885 1507.97164  6.51%     -   45s
     0     0 1509.06139    0  894 1613.03885 1509.06139  6.45%     -   46s
     0     0 1509.21974    0  884 1613.03885 1509.21974  6.44%     -   56s
     0     0 1509.47922    0  869 1613.03885 1509.47922  6.42%     -   57s
     0     0 1509.60971    0  885 1613.03885 1509.60971  6.41%     -   57s
     0     0 1509.60971    0  887 1613.03885 1509.60971  6.41%     -   58s
     0     0 1510.49629    0  826 1613.03885 1510.49629  6.36%     -   58s
     0     0 1511.06148    0  837 1613.03885 1511.06148  6.32%     -   60s
     0     0 1511.31891    0  869 1613.03885 1511.31891  6.31%     -   61s
     0     0 1511.39020    0  851 1613.03885 1511.39020  6.30%     -   61s
     0     0 1512.87335    0  853 1613.03885 1512.87335  6.21%     -   62s
     0     0 1513.14680    0  898 1613.03885 1513.14680  6.19%     -   63s
     0     0 1513.15587    0  898 1613.03885 1513.15587  6.19%     -   63s
     0     0 1514.40726    0  882 1613.03885 1514.40726  6.11%     -   64s
     0     0 1514.51338    0  893 1613.03885 1514.51338  6.11%     -   64s
     0     0 1514.55864    0  937 1613.03885 1514.55864  6.11%     -   64s
     0     0 1514.58333    0  934 1613.03885 1514.58333  6.10%     -   64s
     0     0 1515.27999    0  957 1613.03885 1515.27999  6.06%     -   65s
     0     0 1515.39956    0  957 1613.03885 1515.39956  6.05%     -   66s
     0     0 1515.44814    0 1028 1613.03885 1515.44814  6.05%     -   66s
     0     0 1515.51783    0  937 1613.03885 1515.51783  6.05%     -   66s
     0     0 1515.73781    0  955 1613.03885 1515.73781  6.03%     -   67s
     0     0 1515.82428    0  955 1613.03885 1515.82428  6.03%     -   68s
     0     0 1515.90258    0  955 1613.03885 1515.90258  6.02%     -   69s
     0     0 1516.05644    0  999 1613.03885 1516.05644  6.01%     -   71s
     0     0 1516.05644    0  986 1613.03885 1516.05644  6.01%     -   71s
     0     0 1516.11716    0 1063 1613.03885 1516.11716  6.01%     -   73s
     0     0 1516.12170    0 1076 1613.03885 1516.12170  6.01%     -   74s
     0     0 1516.53791    0 1034 1613.03885 1516.53791  5.98%     -   75s
     0     0 1516.57997    0 1079 1613.03885 1516.57997  5.98%     -   76s
     0     0 1516.63174    0 1027 1613.03885 1516.63174  5.98%     -   76s
     0     0 1516.66710    0 1041 1613.03885 1516.66710  5.97%     -   76s
     0     0 1516.99956    0  954 1613.03885 1516.99956  5.95%     -   78s
     0     0 1517.14923    0 1013 1613.03885 1517.14923  5.94%     -   79s
     0     0 1517.22915    0 1030 1613.03885 1517.22915  5.94%     -   79s
     0     0 1517.23316    0 1033 1613.03885 1517.23316  5.94%     -   79s
     0     0 1517.24722    0 1033 1613.03885 1517.24722  5.94%     -   80s
     0     0 1520.14623    0  539 1613.03885 1520.14623  5.76%     -   86s
     0     0 1520.14623    0  906 1613.03885 1520.14623  5.76%     -   91s
     0     0 1520.14623    0  890 1613.03885 1520.14623  5.76%     -   98s
     0     0 1520.14623    0  962 1613.03885 1520.14623  5.76%     -   98s
     0     0 1520.14623    0  926 1613.03885 1520.14623  5.76%     -   98s
     0     0 1520.14623    0 1027 1613.03885 1520.14623  5.76%     -   99s
     0     0 1520.14623    0 1015 1613.03885 1520.14623  5.76%     -  101s
     0     0 1520.14623    0 1021 1613.03885 1520.14623  5.76%     -  106s
     0     0 1520.14623    0 1044 1613.03885 1520.14623  5.76%     -  106s
     0     0 1520.14623    0 1034 1613.03885 1520.14623  5.76%     -  107s
     0     0 1520.14623    0  913 1613.03885 1520.14623  5.76%     -  111s
     0     0 1520.14623    0  914 1613.03885 1520.14623  5.76%     -  112s
     0     0 1520.14623    0  947 1613.03885 1520.14623  5.76%     -  116s
     0     0 1520.14623    0  967 1613.03885 1520.14623  5.76%     -  118s
     0     0 1520.14623    0  965 1613.03885 1520.14623  5.76%     -  118s
     0     0 1520.14623    0  965 1613.03885 1520.14623  5.76%     -  118s
     0     0 1520.14623    0  921 1613.03885 1520.14623  5.76%     -  120s
     0     0 1520.14623    0  973 1613.03885 1520.14623  5.76%     -  120s
     0     0 1520.14623    0  958 1613.03885 1520.14623  5.76%     -  121s
     0     0 1520.14623    0  971 1613.03885 1520.14623  5.76%     -  122s
     0     0 1520.14623    0  953 1613.03885 1520.14623  5.76%     -  123s
     0     0 1520.14623    0 1040 1613.03885 1520.14623  5.76%     -  123s
     0     0 1520.14623    0 1014 1613.03885 1520.14623  5.76%     -  124s
     0     0 1520.14623    0  991 1613.03885 1520.14623  5.76%     -  126s
     0     0 1520.60962    0 1035 1613.03885 1520.60962  5.73%     -  127s
     0     0 1520.63819    0 1071 1613.03885 1520.63819  5.73%     -  140s
     0     0 1520.63948    0 1071 1613.03885 1520.63948  5.73%     -  140s
     0     0 1520.89125    0 1018 1613.03885 1520.89125  5.71%     -  141s
     0     0 1520.92068    0 1016 1613.03885 1520.92068  5.71%     -  142s
     0     0 1520.95459    0 1001 1613.03885 1520.95459  5.71%     -  142s
     0     0 1520.95628    0 1002 1613.03885 1520.95628  5.71%     -  142s
     0     0 1521.15849    0 1032 1613.03885 1521.15849  5.70%     -  143s
     0     0 1521.17002    0 1005 1613.03885 1521.17002  5.70%     -  144s
     0     0 1521.21580    0  974 1613.03885 1521.21580  5.69%     -  145s
     0     0 1521.22963    0  973 1613.03885 1521.22963  5.69%     -  146s
     0     0 1521.24789    0  973 1613.03885 1521.24789  5.69%     -  147s
     0     2 1523.94095    0  973 1613.03885 1523.94095  5.52%     -  152s
    25    30 1533.32290    5  690 1613.03885 1532.04699  5.02%   740  155s
    78    71 1572.27882    8  625 1613.03885 1532.04699  5.02%   467  160s
   199   109 1604.73641   16  476 1613.03885 1532.04699  5.02%   366  165s
   337   159 1610.68569    6  408 1613.03885 1536.23954  4.76%   299  170s
   494   232 1584.66327   13  429 1613.03885 1536.23954  4.76%   274  175s
   667   283     cutoff   21      1613.03885 1536.23954  4.76%   245  180s
   886   338 1563.29702   10  450 1613.03885 1552.27815  3.77%   242  185s
  1091   399     cutoff   29      1613.03885 1562.13435  3.16%   233  191s
  1339   452 1578.57885   16  639 1613.03885 1566.67059  2.87%   230  196s
  1484   472 1610.09983   23  431 1613.03885 1569.36378  2.71%   228  200s
  1858   458     cutoff   33      1613.03885 1578.39224  2.15%   219  205s
  2160   388 1598.05490   12  630 1613.03885 1583.17598  1.85%   212  210s
  2411   208     cutoff   19      1613.03885 1590.05124  1.43%   212  216s
  2814     0     cutoff   11      1613.03885 1600.53893  0.77%   199  220s

Cutting planes:
  Gomory: 2
  MIR: 160
  Zero half: 3

Explored 2903 nodes (597094 simplex iterations) in 220.72 seconds (117.96 work units)
Thread count was 10 (of 64 available processors)

Solution count 5: 1613.04 1633.46 1657.03 ... 11340.3

Optimal solution found (tolerance 1.00e-04)
Best objective 1.613038845852e+03, best bound 1.613038845852e+03, gap 0.0000%

User-callback calls 18301, time in user-callback 0.03 sec

Gurobi 11.0.1 (win64) logging started Sun Mar 17 10:36:54 2024

Set parameter LogFile to value "res/logfile/neos-4763324-togurulog.txt"

Gurobi 11.0.1 (win64) logging started Sun Mar 17 10:36:54 2024

Set parameter LogFile to value "res/logfile/neos-4763324-togurulog.txt"
Gurobi Optimizer version 11.0.1 build v11.0.1rc0 (win64 - Windows 11.0 (22621.2))

CPU model: AMD Ryzen Threadripper PRO 5975WX 32-Cores, instruction set [SSE2|AVX|AVX2]
Thread count: 32 physical cores, 64 logical processors, using up to 10 threads

Optimize a model with 106954 rows, 53593 columns and 319935 nonzeros
Model fingerprint: 0x9b2157c2
Variable types: 1 continuous, 53592 integer (53592 binary)
Coefficient statistics:
  Matrix range     [1e+00, 5e+04]
  Objective range  [4e-02, 2e+03]
  Bounds range     [1e+00, 1e+00]
  RHS range        [1e+00, 1e+01]
Found heuristic solution: objective 11340.280013
Presolve removed 53130 rows and 0 columns
Presolve time: 0.80s
Presolved: 53824 rows, 53593 columns, 213675 nonzeros
Variable types: 1 continuous, 53592 integer (53592 binary)
Found heuristic solution: objective 6929.7111665
Deterministic concurrent LP optimizer: primal and dual simplex
Showing primal log only...

Concurrent spin time: 0.11s (can be avoided by choosing Method=3)

Solved with dual simplex

Root relaxation: objective 1.483727e+03, 5442 iterations, 0.61 seconds (0.87 work units)

    Nodes    |    Current Node    |     Objective Bounds      |     Work
 Expl Unexpl |  Obj  Depth IntInf | Incumbent    BestBd   Gap | It/Node Time

     0     0 1483.72667    0  539 6929.71117 1483.72667  78.6%     -    2s
H    0     0                    1657.0261564 1483.72667  10.5%     -    3s
     0     0 1493.80909    0  633 1657.02616 1493.80909  9.85%     -    6s
H    0     0                    1633.4558815 1494.03723  8.54%     -    6s
H    0     0                    1613.0388459 1494.03723  7.38%     -    9s
     0     0 1494.73432    0  682 1613.03885 1494.73432  7.33%     -    9s
     0     0 1496.72199    0  763 1613.03885 1496.72199  7.21%     -   11s
     0     0 1498.77290    0  730 1613.03885 1498.77290  7.08%     -   12s
     0     0 1498.83728    0  730 1613.03885 1498.83728  7.08%     -   12s
     0     0 1499.37551    0  751 1613.03885 1499.37551  7.05%     -   15s
     0     0 1499.79789    0  715 1613.03885 1499.79789  7.02%     -   16s
     0     0 1501.15119    0  826 1613.03885 1501.15119  6.94%     -   19s
     0     0 1501.32653    0  819 1613.03885 1501.32653  6.93%     -   21s
     0     0 1501.50757    0  874 1613.03885 1501.50757  6.91%     -   21s
     0     0 1502.48894    0  859 1613.03885 1502.48894  6.85%     -   22s
     0     0 1502.62638    0  859 1613.03885 1502.62638  6.84%     -   23s
     0     0 1503.98599    0  906 1613.03885 1503.98599  6.76%     -   24s
     0     0 1504.38203    0  963 1613.03885 1504.38203  6.74%     -   25s
     0     0 1504.41812    0  978 1613.03885 1504.41812  6.73%     -   25s
     0     0 1504.45444    0  965 1613.03885 1504.45444  6.73%     -   25s
     0     0 1504.48648    0  952 1613.03885 1504.48648  6.73%     -   25s
     0     0 1505.56966    0  896 1613.03885 1505.56966  6.66%     -   26s
     0     0 1505.83085    0  944 1613.03885 1505.83085  6.65%     -   27s
     0     0 1505.83944    0  940 1613.03885 1505.83944  6.65%     -   27s
     0     0 1505.85162    0  925 1613.03885 1505.85162  6.65%     -   27s
     0     0 1506.54885    0  920 1613.03885 1506.54885  6.60%     -   28s
     0     0 1506.65280    0  936 1613.03885 1506.65280  6.60%     -   29s
     0     0 1506.72852    0  868 1613.03885 1506.72852  6.59%     -   29s
     0     0 1506.79689    0  893 1613.03885 1506.79689  6.59%     -   29s
     0     0 1506.86242    0  924 1613.03885 1506.86242  6.58%     -   29s
     0     0 1507.68419    0  824 1613.03885 1507.68419  6.53%     -   30s
     0     0 1507.76855    0  847 1613.03885 1507.76855  6.53%     -   31s
     0     0 1507.76855    0  822 1613.03885 1507.76855  6.53%     -   31s
     0     0 1507.84949    0  835 1613.03885 1507.84949  6.52%     -   32s
     0     0 1507.94742    0  882 1613.03885 1507.94742  6.52%     -   33s
     0     0 1507.95093    0  855 1613.03885 1507.95093  6.51%     -   33s
     0     0 1507.97137    0  858 1613.03885 1507.97137  6.51%     -   33s
     0     0 1507.97164    0  859 1613.03885 1507.97164  6.51%     -   33s
     0     0 1509.06139    0  894 1613.03885 1509.06139  6.45%     -   34s
     0     0 1509.21974    0  884 1613.03885 1509.21974  6.44%     -   40s
     0     0 1509.47922    0  869 1613.03885 1509.47922  6.42%     -   40s
     0     0 1509.60971    0  885 1613.03885 1509.60971  6.41%     -   41s
     0     0 1509.60971    0  887 1613.03885 1509.60971  6.41%     -   41s
     0     0 1510.49629    0  826 1613.03885 1510.49629  6.36%     -   42s
     0     0 1511.06148    0  837 1613.03885 1511.06148  6.32%     -   43s
     0     0 1511.31891    0  869 1613.03885 1511.31891  6.31%     -   44s
     0     0 1511.39020    0  851 1613.03885 1511.39020  6.30%     -   44s
     0     0 1512.87335    0  853 1613.03885 1512.87335  6.21%     -   45s
     0     0 1513.14680    0  898 1613.03885 1513.14680  6.19%     -   45s
     0     0 1513.15587    0  898 1613.03885 1513.15587  6.19%     -   45s
     0     0 1514.40726    0  882 1613.03885 1514.40726  6.11%     -   46s
     0     0 1514.51338    0  893 1613.03885 1514.51338  6.11%     -   47s
     0     0 1514.55864    0  937 1613.03885 1514.55864  6.11%     -   47s
     0     0 1514.58333    0  934 1613.03885 1514.58333  6.10%     -   47s
     0     0 1515.27999    0  957 1613.03885 1515.27999  6.06%     -   48s
     0     0 1515.39956    0  957 1613.03885 1515.39956  6.05%     -   48s
     0     0 1515.44814    0 1028 1613.03885 1515.44814  6.05%     -   48s
     0     0 1515.51783    0  937 1613.03885 1515.51783  6.05%     -   49s
     0     0 1515.73781    0  955 1613.03885 1515.73781  6.03%     -   49s
     0     0 1515.82428    0  955 1613.03885 1515.82428  6.03%     -   50s
     0     0 1515.90258    0  955 1613.03885 1515.90258  6.02%     -   50s
     0     0 1516.05644    0  999 1613.03885 1516.05644  6.01%     -   51s
     0     0 1516.05644    0  986 1613.03885 1516.05644  6.01%     -   51s
     0     0 1516.11716    0 1063 1613.03885 1516.11716  6.01%     -   52s
     0     0 1516.12170    0 1076 1613.03885 1516.12170  6.01%     -   53s
     0     0 1516.53791    0 1034 1613.03885 1516.53791  5.98%     -   54s
     0     0 1516.57997    0 1079 1613.03885 1516.57997  5.98%     -   55s
     0     0 1516.63174    0 1027 1613.03885 1516.63174  5.98%     -   55s
     0     0 1516.66710    0 1041 1613.03885 1516.66710  5.97%     -   55s
     0     0 1516.99956    0  954 1613.03885 1516.99956  5.95%     -   56s
     0     0 1517.14923    0 1013 1613.03885 1517.14923  5.94%     -   57s
     0     0 1517.22915    0 1030 1613.03885 1517.22915  5.94%     -   57s
     0     0 1517.23316    0 1033 1613.03885 1517.23316  5.94%     -   57s
     0     0 1517.24722    0 1033 1613.03885 1517.24722  5.94%     -   58s
     0     0 1520.14623    0  539 1613.03885 1520.14623  5.76%     -   63s
     0     0 1520.14623    0  906 1613.03885 1520.14623  5.76%     -   66s
     0     0 1520.14623    0  890 1613.03885 1520.14623  5.76%     -   70s
     0     0 1520.14623    0  962 1613.03885 1520.14623  5.76%     -   71s
     0     0 1520.14623    0  926 1613.03885 1520.14623  5.76%     -   71s
     0     0 1520.14623    0 1027 1613.03885 1520.14623  5.76%     -   71s
     0     0 1520.14623    0 1015 1613.03885 1520.14623  5.76%     -   73s
     0     0 1520.14623    0 1021 1613.03885 1520.14623  5.76%     -   77s
     0     0 1520.14623    0 1044 1613.03885 1520.14623  5.76%     -   77s
     0     0 1520.14623    0 1034 1613.03885 1520.14623  5.76%     -   77s
     0     0 1520.14623    0  913 1613.03885 1520.14623  5.76%     -   80s
     0     0 1520.14623    0  914 1613.03885 1520.14623  5.76%     -   81s
     0     0 1520.14623    0  947 1613.03885 1520.14623  5.76%     -   83s
     0     0 1520.14623    0  967 1613.03885 1520.14623  5.76%     -   84s
     0     0 1520.14623    0  965 1613.03885 1520.14623  5.76%     -   85s
     0     0 1520.14623    0  965 1613.03885 1520.14623  5.76%     -   85s
     0     0 1520.14623    0  921 1613.03885 1520.14623  5.76%     -   85s
     0     0 1520.14623    0  973 1613.03885 1520.14623  5.76%     -   86s
     0     0 1520.14623    0  958 1613.03885 1520.14623  5.76%     -   87s
     0     0 1520.14623    0  971 1613.03885 1520.14623  5.76%     -   87s
     0     0 1520.14623    0  953 1613.03885 1520.14623  5.76%     -   88s
     0     0 1520.14623    0 1040 1613.03885 1520.14623  5.76%     -   88s
     0     0 1520.14623    0 1014 1613.03885 1520.14623  5.76%     -   89s
     0     0 1520.14623    0  991 1613.03885 1520.14623  5.76%     -   90s
     0     0 1520.60962    0 1035 1613.03885 1520.60962  5.73%     -   90s
     0     0 1520.63819    0 1071 1613.03885 1520.63819  5.73%     -   99s
     0     0 1520.63948    0 1071 1613.03885 1520.63948  5.73%     -  100s
     0     0 1520.89125    0 1018 1613.03885 1520.89125  5.71%     -  100s
     0     0 1520.92068    0 1016 1613.03885 1520.92068  5.71%     -  101s
     0     0 1520.95459    0 1001 1613.03885 1520.95459  5.71%     -  101s
     0     0 1520.95628    0 1002 1613.03885 1520.95628  5.71%     -  101s
     0     0 1521.15849    0 1032 1613.03885 1521.15849  5.70%     -  102s
     0     0 1521.17002    0 1005 1613.03885 1521.17002  5.70%     -  102s
     0     0 1521.21580    0  974 1613.03885 1521.21580  5.69%     -  103s
     0     0 1521.22963    0  973 1613.03885 1521.22963  5.69%     -  104s
     0     0 1521.24789    0  973 1613.03885 1521.24789  5.69%     -  104s
     0     2 1523.94095    0  973 1613.03885 1523.94095  5.52%     -  108s
     7    16 1530.16520    3  752 1613.03885 1529.85431  5.16%   830  110s
   103    80 1540.13145    9  617 1613.03885 1532.04699  5.02%   419  115s
   295   136     cutoff   28      1613.03885 1536.23954  4.76%   308  120s
   494   232 1584.66327   13  429 1613.03885 1536.23954  4.76%   274  125s
   786   302 1598.97318   16  311 1613.03885 1546.40142  4.13%   244  130s
  1028   367 1599.16260   17  539 1613.03885 1559.74060  3.30%   235  135s
  1339   452 1578.57885   16  639 1613.03885 1566.67059  2.87%   230  140s
  1737   474 1599.17827   17  424 1613.03885 1576.61648  2.26%   222  146s
  2160   388 1598.05490   12  630 1613.03885 1583.17598  1.85%   212  151s
  2411   208     cutoff   19      1613.03885 1590.05124  1.43%   212  155s

Cutting planes:
  Gomory: 2
  MIR: 160
  Zero half: 3

Explored 2903 nodes (597094 simplex iterations) in 158.35 seconds (117.96 work units)
Thread count was 10 (of 64 available processors)

Solution count 5: 1613.04 1633.46 1657.03 ... 11340.3

Optimal solution found (tolerance 1.00e-04)
Best objective 1.613038845852e+03, best bound 1.613038845852e+03, gap 0.0000%

User-callback calls 12539, time in user-callback 0.00 sec
